(set-logic HORN)
(set-info :source |
  Benchmark: ./benchmarks/Table1/sum-up-down.ml
  Generated by Refinement Caml
|)
(set-info :status unknown)
(declare-fun |$P0| (Int Int Int) Bool)
(declare-fun |$P1| (Int Int Int) Bool)
(assert (forall ((x2 Int)(x0 Int)(x1 Int)) (=> (and (= x2 x0) (= x1 x2)) (|$P0| x2 x0 x1))))
(assert (forall ((x2 Int)(x1 Int)(x0 Int)(x3 Int)(x4 Int)) (=> (and (|$P0| x2 x3 x4) (and (or (< x1 x2) (> x1 x2)) (and (= x1 (+ 1 x3)) (= x0 (+ x1 x4))))) (|$P0| x2 x1 x0))))
(assert (forall ((x2 Int)(x0 Int)(x1 Int)) (=> (and (= x2 x0) (= x1 x2)) (|$P1| x2 x0 x1))))
(assert (forall ((x1 Int)(x3 Int)(x0 Int)(x2 Int)(x4 Int)) (=> (and (|$P1| x2 x3 x4) (and (or (< x1 x3) (> x1 x3)) (and (= x2 (+ 1 x1)) (= x0 (+ x1 x4))))) (|$P1| x1 x3 x0))))
(assert (not (exists ((x0 Int)(x3 Int)(x1 Int)(x2 Int)) (and (|$P0| x1 x2 x0) (and (|$P1| x1 x2 x3) (or (< x0 x3) (> x0 x3)))))))
(check-sat)
